sat
(:max-memory         18.23
 :memory             18.05
 :nlsat-propagations 11
 :nlsat-stages       4
 :num-allocs         7994
 :rlimit-count       6293
 :time               0.00
 :total-time         0.01)
